Normalized Data/p03_17_normalized_splitx10_0.vrp
NAME:p03_17_NORMALIZED_splitx10_
BEST_KNOWN: 0
COMMENT: 0
DIMENSION: 435
CAPACITY: 1000
EDGE_WEIGHT_FORMAT: FUNCTION
EDGE_WEIGHT_TYPE: EXACT_2D
NODE_COORD_SECTION
1 0.00000 0.00000
2 47 34
3 47 34
4 47 34
5 -42 1
6 -42 1
7 -42 1
8 30 -13
9 30 -13
10 30 -13
11 30 -13
12 50 6
13 50 6
14 50 6
15 50 6
16 50 6
17 50 6
18 15 -16
19 15 -16
20 15 -16
21 15 -16
22 37 -4
23 37 -4
24 37 -4
25 37 -4
26 37 -4
27 -46 46
28 -46 46
29 -46 46
30 -46 46
31 -46 46
32 -46 46
33 8 18
34 8 18
35 8 18
36 8 18
37 10 -36
38 10 -36
39 10 -36
40 10 -36
41 10 -36
42 10 -36
43 16 -48
44 16 -48
45 16 -48
46 16 -48
47 16 -48
48 16 -48
49 44 -50
50 44 -50
51 14 37
52 14 37
53 14 37
54 14 37
55 -20 -15
56 -20 -15
57 -20 -15
58 -20 -15
59 -20 -15
60 -20 -15
61 -6 -9
62 -6 -9
63 -6 -9
64 -6 -9
65 -6 -9
66 -6 -9
67 -6 -9
68 -26 -34
69 -26 -34
70 -26 -34
71 -26 -34
72 -26 -34
73 -26 -34
74 -26 38
75 -26 38
76 -30 -12
77 -30 -12
78 -30 -12
79 -30 -12
80 49 4
81 49 4
82 49 4
83 49 4
84 49 4
85 13 19
86 13 19
87 42 38
88 42 38
89 23 14
90 23 14
91 23 14
92 23 14
93 23 14
94 23 14
95 22 25
96 22 25
97 22 25
98 22 25
99 -41 33
100 -41 33
101 -41 33
102 3 -43
103 3 -43
104 3 -43
105 -17 -50
106 -17 -50
107 5 42
108 5 42
109 5 42
110 5 42
111 5 42
112 5 42
113 5 42
114 -26 -32
115 -26 -32
116 -26 -32
117 6 15
118 6 15
119 6 15
120 6 15
121 6 15
122 -26 8
123 -26 8
124 -26 8
125 -26 8
126 -26 8
127 -26 8
128 -26 8
129 -38 34
130 -38 34
131 -38 34
132 -38 34
133 -38 34
134 17 -12
135 17 -12
136 17 -12
137 -14 12
138 -14 12
139 -14 12
140 -14 12
141 -14 12
142 -14 12
143 47 -13
144 47 -13
145 47 -13
146 47 -13
147 47 -13
148 47 -13
149 -30 46
150 -30 46
151 -30 46
152 -30 46
153 -30 46
154 -14 12
155 -14 12
156 -14 12
157 -14 12
158 -14 12
159 5 -21
160 5 -21
161 5 -21
162 5 -21
163 -2 49
164 -2 49
165 -2 49
166 -2 49
167 -22 42
168 -22 42
169 -22 42
170 -22 42
171 -22 42
172 -22 42
173 -5 39
174 -5 39
175 -5 39
176 12 31
177 12 31
178 12 31
179 28 40
180 28 40
181 28 40
182 7 22
183 7 22
184 7 22
185 7 22
186 20 41
187 20 41
188 20 41
189 20 41
190 4 4
191 4 4
192 4 4
193 4 4
194 4 4
195 4 4
196 -44 -12
197 -44 -12
198 -44 -12
199 -44 -12
200 -44 -12
201 -46 -26
202 -46 -26
203 -46 -26
204 -46 -26
205 -46 -26
206 -46 -26
207 -3 21
208 -3 21
209 -3 21
210 -3 21
211 -3 21
212 -50 -12
213 -50 -12
214 -50 -12
215 -50 -12
216 -22 -8
217 -22 -8
218 -22 -8
219 -22 -8
220 -8 -18
221 -8 -18
222 -8 -18
223 -15 -6
224 -15 -6
225 -15 -6
226 -15 -6
227 13 -22
228 13 -22
229 13 -22
230 13 -22
231 13 -22
232 20 27
233 20 27
234 20 27
235 20 27
236 20 27
237 20 27
238 -38 47
239 -38 47
240 14 -43
241 -15 39
242 -15 39
243 -24 29
244 -24 29
245 -24 29
246 -24 29
247 -39 -7
248 -39 -7
249 -39 -7
250 -39 -7
251 -39 -7
252 9 45
253 9 45
254 9 45
255 9 45
256 9 45
257 10 34
258 10 34
259 10 34
260 -47 -14
261 -47 -14
262 -47 -14
263 -47 -14
264 -47 -14
265 -21 -50
266 -21 -50
267 -21 -50
268 -36 48
269 -36 48
270 -36 48
271 -8 -28
272 -8 -28
273 -8 -28
274 -8 -28
275 -8 -28
276 -20 43
277 -20 43
278 -20 43
279 -20 43
280 -16 -25
281 -16 -25
282 -16 -25
283 -16 -25
284 -16 -25
285 -1 4
286 -1 4
287 -1 4
288 -1 4
289 21 12
290 21 12
291 21 12
292 21 12
293 2 -31
294 2 -31
295 2 -31
296 2 -31
297 2 -31
298 -50 49
299 -50 49
300 -50 49
301 -50 49
302 -50 49
303 39 32
304 39 32
305 39 32
306 39 32
307 39 32
308 44 41
309 44 41
310 44 41
311 44 41
312 8 -30
313 8 -30
314 8 -30
315 8 -30
316 8 -30
317 21 25
318 21 25
319 21 25
320 21 25
321 21 25
322 31 33
323 31 33
324 31 33
325 31 33
326 -49 15
327 -49 15
328 -49 15
329 -47 -22
330 -47 -22
331 -47 -22
332 -47 -22
333 40 32
334 40 32
335 40 32
336 -10 -34
337 -10 -34
338 -10 -34
339 -10 -34
340 -10 -34
341 0 -22
342 0 -22
343 0 -22
344 0 -22
345 0 -22
346 -44 -42
347 -44 -42
348 -44 -42
349 -44 -42
350 42 50
351 42 50
352 42 50
353 35 38
354 35 38
355 35 38
356 35 38
357 35 38
358 35 38
359 35 38
360 4 -12
361 4 -12
362 4 -12
363 4 -12
364 4 -12
365 -31 -47
366 -31 -47
367 -31 -47
368 -31 -47
369 -31 -47
370 -31 -47
371 29 -8
372 29 -8
373 29 -8
374 -41 42
375 -41 42
376 3 -17
377 3 -17
378 3 -17
379 -16 3
380 -16 3
381 49 26
382 49 26
383 49 26
384 49 26
385 49 26
386 49 26
387 2 -25
388 2 -25
389 2 -25
390 2 -25
391 2 -25
392 2 -25
393 -17 17
394 -17 17
395 -17 17
396 -17 17
397 -17 17
398 -17 17
399 38 -9
400 38 -9
401 38 -9
402 38 -9
403 38 -9
404 -18 -14
405 -18 -14
406 -18 -14
407 -18 -14
408 -18 -14
409 -18 -14
410 -18 -14
411 1 -14
412 1 -14
413 1 -14
414 1 -14
415 1 -14
416 -26 8
417 -26 8
418 -26 8
419 -46 -30
420 -46 -30
421 -46 -30
422 -46 -30
423 -28 18
424 -28 18
425 -28 18
426 -28 18
427 -28 18
428 -28 18
429 -27 -35
430 -27 -35
431 -27 -35
432 -27 -35
433 34 50
434 34 50
435 34 50
DEMAND_SECTION
1 0
2 200
3 200
4 100
5 200
6 100
7 50
8 200
9 100
10 10
11 10
12 200
13 100
14 50
15 10
16 10
17 10
18 100
19 10
20 10
21 10
22 200
23 100
24 10
25 10
26 10
27 100
28 50
29 10
30 10
31 10
32 10
33 100
34 10
35 10
36 10
37 200
38 200
39 50
40 10
41 10
42 10
43 200
44 100
45 50
46 10
47 10
48 10
49 200
50 200
51 200
52 50
53 10
54 10
55 200
56 200
57 10
58 10
59 10
60 10
61 200
62 100
63 50
64 10
65 10
66 10
67 10
68 200
69 100
70 50
71 10
72 10
73 10
74 200
75 50
76 200
77 200
78 50
79 10
80 100
81 50
82 10
83 10
84 10
85 200
86 10
87 200
88 100
89 200
90 200
91 10
92 10
93 10
94 10
95 200
96 50
97 10
98 10
99 200
100 50
101 10
102 100
103 10
104 10
105 200
106 10
107 200
108 100
109 50
110 10
111 10
112 10
113 10
114 200
115 100
116 10
117 200
118 200
119 10
120 10
121 10
122 200
123 200
124 50
125 10
126 10
127 10
128 10
129 200
130 200
131 50
132 10
133 10
134 200
135 10
136 10
137 200
138 50
139 10
140 10
141 10
142 10
143 200
144 50
145 10
146 10
147 10
148 10
149 100
150 10
151 10
152 10
153 10
154 200
155 200
156 50
157 10
158 10
159 200
160 50
161 10
162 10
163 200
164 50
165 10
166 10
167 200
168 200
169 10
170 10
171 10
172 10
173 200
174 200
175 50
176 200
177 10
178 10
179 100
180 10
181 10
182 100
183 50
184 10
185 10
186 200
187 200
188 10
189 10
190 200
191 200
192 10
193 10
194 10
195 10
196 200
197 100
198 50
199 10
200 10
201 200
202 200
203 10
204 10
205 10
206 10
207 200
208 100
209 50
210 10
211 10
212 200
213 200
214 50
215 10
216 100
217 10
218 10
219 10
220 200
221 200
222 10
223 100
224 10
225 10
226 10
227 200
228 200
229 50
230 10
231 10
232 200
233 100
234 50
235 10
236 10
237 10
238 200
239 200
240 200
241 200
242 50
243 200
244 200
245 10
246 10
247 200
248 10
249 10
250 10
251 10
252 200
253 10
254 10
255 10
256 10
257 200
258 200
259 100
260 200
261 10
262 10
263 10
264 10
265 200
266 200
267 10
268 200
269 100
270 50
271 200
272 100
273 50
274 10
275 10
276 200
277 10
278 10
279 10
280 200
281 50
282 10
283 10
284 10
285 200
286 10
287 10
288 10
289 200
290 10
291 10
292 10
293 200
294 50
295 10
296 10
297 10
298 200
299 200
300 10
301 10
302 10
303 200
304 200
305 10
306 10
307 10
308 100
309 10
310 10
311 10
312 200
313 200
314 50
315 10
316 10
317 200
318 200
319 50
320 10
321 10
322 200
323 200
324 10
325 10
326 200
327 50
328 10
329 100
330 10
331 10
332 10
333 200
334 100
335 10
336 200
337 200
338 10
339 10
340 10
341 200
342 100
343 10
344 10
345 10
346 200
347 200
348 10
349 10
350 200
351 100
352 10
353 200
354 200
355 50
356 10
357 10
358 10
359 10
360 200
361 200
362 10
363 10
364 10
365 200
366 50
367 10
368 10
369 10
370 10
371 200
372 200
373 10
374 200
375 10
376 200
377 200
378 10
379 200
380 50
381 200
382 50
383 10
384 10
385 10
386 10
387 200
388 200
389 50
390 10
391 10
392 10
393 200
394 200
395 50
396 10
397 10
398 10
399 200
400 10
401 10
402 10
403 10
404 200
405 100
406 50
407 10
408 10
409 10
410 10
411 200
412 100
413 10
414 10
415 10
416 200
417 200
418 50
419 200
420 100
421 10
422 10
423 200
424 200
425 50
426 10
427 10
428 10
429 200
430 100
431 50
432 10
433 100
434 10
435 10
DEPOT_SECTION
1
-1
EOF