Normalized Data/p03_17_normalized_splitx10_0.sol
434 -11 16 15 12 14 13 82 83 79 80 81 147 144 146 143 145 142 9 20 17 18 19 -24 22 23 25 21 402 399 398 400 401 371 372 370 -35 33 32 34 175 257 256 258 181 183 182 184 -39 41 36 37 38 40 101 102 103 293 296 292 295 294 390 389 413 -49 48 46 43 45 44 42 47 239 -56 54 58 59 55 57 406 408 403 407 404 409 405 65 63 61 64 66 -62 60 411 412 414 410 360 363 359 361 362 -69 67 71 68 429 428 114 115 113 -74 73 167 171 168 170 169 166 278 276 277 275 -84 85 232 234 231 233 235 236 94 97 316 -87 86 310 308 309 307 350 351 349 432 434 433 180 179 178 -104 105 266 264 265 280 282 281 279 283 -109 107 112 108 110 106 111 255 251 252 253 254 51 50 52 53 176 177 -120 119 118 185 187 188 186 358 355 354 356 353 352 357 193 191 -122 126 124 127 125 123 121 417 415 416 -133 135 134 8 10 7 228 230 229 226 227 -137 392 397 394 395 396 393 245 244 243 242 -139 157 154 136 153 207 206 209 208 210 -149 148 152 150 151 268 267 269 237 238 -156 138 155 140 141 100 99 298 300 297 301 299 26 29 28 30 27 31 374 373 -160 161 158 159 314 313 311 312 315 377 375 -190 189 117 116 284 -192 194 321 323 324 322 303 306 304 334 332 333 -195 197 199 263 262 261 259 260 214 211 212 213 250 248 249 -198 196 331 330 329 328 203 205 200 201 204 202 419 420 418 421 -220 337 335 339 338 336 273 270 274 271 272 -221 219 72 70 431 430 369 366 367 368 364 365 347 348 346 345 -225 224 223 222 216 215 218 217 78 75 77 76 379 378 -241 240 165 164 162 163 173 174 172 287 286 285 -247 246 5 4 6 422 423 425 426 -290 288 289 291 91 93 90 88 92 89 95 96 317 319 318 320 -305 302 2 3 1 381 385 383 380 384 382 -326 327 325 98 131 132 129 128 130 427 424 -344 341 343 342 340 391 386 388 387 376 0 





OBJ=
3128.118
BEST_KNOWN=
0.000